; benchmark generated from python API
(set-info :status unknown)
(declare-fun C () Real)
(declare-fun S_5 () Real)
(declare-fun L_2 () Real)
(declare-fun A_2 () Real)
(declare-fun S_4 () Real)
(declare-fun S_2 () Real)
(declare-fun S_3 () Real)
(declare-fun L_1 () Real)
(declare-fun S_1 () Real)
(declare-fun A_1 () Real)
(declare-fun S_0 () Real)
(declare-fun L_0 () Real)
(declare-fun A_0 () Real)
(declare-fun A_3 () Real)
(declare-fun A_4 () Real)
(declare-fun A_5 () Real)
(assert
 (let (($x39 (>= L_0 0.0)))
 (let (($x784 (>= C 5.0)))
 (let (($x5417 (<= (+ A_2 (* (- 1.0) L_2) C (* (- 1.0) S_4)) 0.0)))
 (let (($x2164 (<= (+ (* (- 1.0) L_1) A_1 (* 2.0 C) (* (- 1.0) S_4)) 0.0)))
 (let (($x10137 (or $x2164 (<= (+ (* 3.0 C) (* (- 1.0) S_4) S_0) 0.0) $x5417)))
 (let (($x5363 (<= (+ A_2 (* (- 1.0) L_2) (* (- 1.0) S_5) (* 2.0 C)) 0.0)))
 (let (($x9386 (<= 0.0 (+ (* (- 1.0) A_2) L_2 (* (- 1.0) L_1) A_1 C))))
 (let (($x2392 (<= (+ (* (- 1.0) S_5) (* 4.0 C) S_0) 0.0)))
 (let (($x2168 (<= (+ (* (- 1.0) S_5) (* (- 1.0) L_1) A_1 (* 3.0 C)) 0.0)))
 (let (($x9399 (not $x9386)))
 (let (($x5419 (<= (+ A_2 (* (- 1.0) L_2) (* (- 1.0) S_3)) 0.0)))
 (let (($x10068 (or $x5419 $x9399 (not (<= 0.0 (+ (* (- 1.0) A_2) L_2 (* 2.0 C) S_0))))))
 (let (($x2078 (<= (+ (* 2.0 C) (* (- 1.0) S_3) S_0) 0.0)))
 (let (($x10066 (or $x2078 (<= (+ (* (- 1.0) L_1) A_1 C (* (- 1.0) S_3)) 0.0) $x9386)))
 (let (($x9825 (<= 0.0 (+ (* (- 1.0) A_2) L_2 (* 2.0 C) S_0))))
 (let (($x9460 (<= 0.0 (+ (* (- 1.0) A_2) L_2 C S_1))))
 (let (($x56 (= L_1 L_0)))
 (let (($x15891 (or $x56 (not (<= 0.0 (+ S_5 (* (- 2.0) C) (* (- 1.0) A_1) L_1))))))
 (let (($x66 (= L_2 L_1)))
 (let (($x16058 (or $x66 (not (<= 0.0 (+ (* (- 1.0) A_2) L_2 S_5 (* (- 1.0) C)))))))
 (let (($x9469 (or (<= (+ C (* (- 1.0) S_2) S_0) 0.0) (<= (+ (* (- 1.0) L_1) A_1 (* (- 1.0) S_2)) 0.0))))
 (let (($x1912 (not $x56)))
 (let (($x16062 (or $x66 (<= (+ (* (- 1.0) A_2) L_2 A_1 C (* (- 1.0) L_0)) 0.0) $x1912)))
 (let (($x502 (or $x56 $x66 (= (+ (* (- 1.0) A_2) L_2 A_1 C (* (- 1.0) L_1)) 0.0))))
 (let (($x140 (>= S_5 S_4)))
 (let (($x128 (>= S_1 S_0)))
 (let (($x131 (>= S_2 S_1)))
 (let (($x134 (>= S_3 S_2)))
 (let (($x137 (>= S_4 S_3)))
 (let (($x142 (>= A_1 A_0)))
 (let (($x143 (>= A_2 A_1)))
 (let (($x145 (>= A_4 A_3)))
 (let (($x146 (>= A_5 A_4)))
 (and (<= (+ A_2 (* (- 1.0) L_2)) S_5) $x146 $x145 $x143 $x142 $x137 $x134 $x131 $x128 $x140 (or $x56 (not (<= 0.0 (+ (* (- 1.0) L_1) L_0)))) (or $x66 (not (<= 0.0 (+ (* (- 1.0) L_2) L_1)))) $x502 $x16062 (or $x56 $x9386) $x9469 $x16058 (<= (+ S_4 (* (- 5.0) C) (* (- 1.0) S_0)) 0.0) (<= (+ (* (- 1.0) A_1) S_4 (* (- 3.0) C) L_1) 0.0) (<= (+ L_1 (* (- 1.0) A_1) (* (- 1.0) C) S_2) 0.0) (<= (+ S_5 L_1 (* (- 1.0) A_1) (* (- 4.0) C)) 0.0) (<= (+ (* (- 2.0) C) S_3 (* (- 1.0) S_2)) 0.0) (<= (+ S_4 (* (- 4.0) C) (* (- 1.0) S_1)) 0.0) (or $x9460 (<= (+ C (* (- 1.0) S_3) S_1) 0.0)) (<= (+ (* (- 1.0) C) (* (- 1.0) A_0) S_1 L_0) 0.0) $x15891 (<= (+ (* (- 4.0) C) S_3 (* (- 1.0) S_0)) 0.0) (<= (+ S_5 (* (- 6.0) C) (* (- 1.0) S_0)) 0.0) (or (<= (+ (* 2.0 C) (* (- 1.0) S_4) S_1) 0.0) $x9460) (or $x5419 (not $x9460)) (<= (+ (* (- 2.0) C) S_2 (* (- 1.0) S_1)) 0.0) (<= (+ (* (- 3.0) C) S_2 (* (- 1.0) S_0)) 0.0) (<= (+ (* (- 1.0) A_2) L_2 S_2) 0.0) (or $x2078 $x9399 $x9825) $x10066 $x10068 (<= (+ (* (- 1.0) A_2) L_2 (* (- 2.0) C) S_4) 0.0) (or $x2392 $x5363 $x9399) (or $x2168 $x2392 $x9386) (<= (+ S_5 (* (- 5.0) C) (* (- 1.0) S_1)) 0.0) (<= (+ S_5 (* (- 5.0) C) (* (- 1.0) A_0) L_0) 0.0) (<= (+ (* (- 1.0) A_0) (* (- 3.0) C) S_3 L_0) 0.0) (<= (+ (* (- 3.0) C) S_3 (* (- 1.0) S_1)) 0.0) (<= (+ L_1 (* (- 1.0) A_1) (* (- 2.0) C) S_3) 0.0) (<= (+ (* (- 1.0) A_0) S_4 (* (- 4.0) C) L_0) 0.0) (<= (+ (* (- 2.0) C) (* (- 1.0) A_0) S_2 L_0) 0.0) (or $x5417 (not $x9460)) (or (<= (+ (* (- 1.0) S_5) (* 3.0 C) S_1) 0.0) $x5363) $x10137 $x784 $x39 (not (>= (+ L_2 S_5 (* (- 1.0) A_3)) 0.0)) (<= (+ (* (- 1.0) S_5) C S_3) 0.0) (<= (+ (* (- 1.0) A_0) S_0 L_0) 0.0) (<= (+ C (* (- 1.0) S_4) S_2) 0.0) (<= (+ (* (- 1.0) S_5) (* 2.0 C) S_2) 0.0) (<= (+ S_4 (* (- 2.0) C) (* (- 1.0) S_3)) 0.0) (<= (+ (* (- 2.0) C) S_1 (* (- 1.0) S_0)) 0.0) (<= (+ (* (- 1.0) A_1) S_1 L_1) 0.0) (<= (+ S_5 (* (- 3.0) C) (* (- 1.0) S_3)) 0.0) (<= (+ (* (- 1.0) A_2) L_2 (* (- 1.0) C) S_3) 0.0) (<= (+ S_4 (* (- 3.0) C) (* (- 1.0) S_2)) 0.0) (<= (+ S_5 (* (- 4.0) C) (* (- 1.0) S_2)) 0.0) (<= (+ S_5 (* (- 2.0) C) (* (- 1.0) S_4)) 0.0) (<= (+ (* (- 1.0) A_2) L_2 S_5 (* (- 3.0) C)) 0.0))))))))))))))))))))))))))))))))))))
(check-sat)
